(set-info :smt-lib-version 2.6)
(set-logic QF_S)
(set-info :source |
Generated by: Hung-En Wang, Tzung-Lin Tsai, Chun-Han Lin, Fang Yu, and Jie-Hong R. Jiang
Generated on: 2019-02-28
Generator: Stranger
Application: Security analysis of string manipulating web applications
Target solver: CVC4, Norn, Z3-str2
Publication:
Hung-En Wang, Tzung-Lin Tsai, Chun-Han Lin, Fang Yu, Jie-Hong R. Jiang:
String Analysis via Automata Manipulation with Logic Circuit Representation. CAV (1) 2016: 241-260.
|)
(set-info :license "https://creativecommons.org/licenses/by/4.0/")
(set-info :category "industrial")
(set-info :status unknown)

(declare-fun sigmaStar_0 () String)
(declare-fun sigmaStar_1 () String)
(declare-fun literal_15 () String)
(declare-fun x_14 () String)
(declare-fun literal_8 () String)
(declare-fun literal_10 () String)
(declare-fun literal_9 () String)
(declare-fun literal_7 () String)
(declare-fun x_16 () String)
(declare-fun sigmaStar_17 () String)
(declare-fun literal_18 () String)
(declare-fun x_19 () String)
(declare-fun literal_20 () String)
(declare-fun x_21 () String)
(assert (= literal_15 "\u{53}\u{45}\u{4c}\u{45}\u{43}\u{54}\u{20}\u{75}\u{2e}\u{2a}\u{2c}\u{20}\u{72}\u{2e}\u{72}\u{61}\u{74}\u{69}\u{6e}\u{67}\u{2c}\u{20}\u{72}\u{2e}\u{74}\u{69}\u{6d}\u{65}\u{0d}\u{0a}\u{20}\u{20}\u{20}\u{20}\u{20}\u{20}\u{20}\u{20}\u{20}\u{20}\u{20}\u{20}\u{20}\u{20}\u{20}\u{20}\u{20}\u{20}\u{20}\u{20}\u{20}\u{20}\u{20}\u{20}\u{20}\u{20}\u{20}\u{20}\u{20}\u{20}\u{46}\u{52}\u{4f}\u{4d}\u{20}\u{66}\u{6f}\u{72}\u{75}\u{6d}\u{5f}\u{72}\u{61}\u{74}\u{69}\u{6e}\u{67}\u{73}\u{20}\u{72}\u{2c}\u{0d}\u{0a}\u{20}\u{20}\u{20}\u{20}\u{20}\u{20}\u{20}\u{20}\u{20}\u{20}\u{20}\u{20}\u{20}\u{20}\u{20}\u{20}\u{20}\u{20}\u{20}\u{20}\u{20}\u{20}\u{20}\u{20}\u{20}\u{20}\u{20}\u{20}\u{20}\u{20}\u{20}\u{20}\u{20}\u{20}\u{20}\u{75}\u{73}\u{65}\u{72}\u{20}\u{75}\u{0d}\u{0a}\u{20}\u{20}\u{20}\u{20}\u{20}\u{20}\u{20}\u{20}\u{20}\u{20}\u{20}\u{20}\u{20}\u{20}\u{20}\u{20}\u{20}\u{20}\u{20}\u{20}\u{20}\u{20}\u{20}\u{20}\u{20}\u{20}\u{20}\u{20}\u{20}\u{57}\u{48}\u{45}\u{52}\u{45}\u{20}\u{72}\u{2e}\u{70}\u{6f}\u{73}\u{74}\u{20}\u{3d}\u{20}\u{27}\u{27}\u{0d}\u{0a}\u{20}\u{20}\u{20}\u{20}\u{20}\u{20}\u{20}\u{20}\u{20}\u{20}\u{20}\u{20}\u{20}\u{20}\u{20}\u{20}\u{20}\u{20}\u{20}\u{20}\u{20}\u{20}\u{20}\u{20}\u{20}\u{20}\u{20}\u{20}\u{20}\u{20}\u{20}\u{41}\u{4e}\u{44}\u{20}\u{72}\u{2e}\u{75}\u{73}\u{65}\u{72}\u{69}\u{64}\u{20}\u{3d}\u{20}\u{75}\u{2e}\u{69}\u{64}\u{0d}\u{0a}\u{20}\u{20}\u{20}\u{20}\u{20}\u{20}\u{20}\u{20}\u{20}\u{20}\u{20}\u{20}\u{20}\u{20}\u{20}\u{20}\u{20}\u{20}\u{20}\u{20}\u{20}\u{20}\u{20}\u{20}\u{20}\u{20}\u{20}\u{20}\u{20}\u{4f}\u{52}\u{44}\u{45}\u{52}\u{20}\u{42}\u{59}\u{20}"))
(assert (= literal_8 "\u{72}\u{2e}\u{72}\u{61}\u{74}\u{69}\u{6e}\u{67}\u{20}\u{41}\u{53}\u{43}"))
(assert (= literal_10 "\u{72}\u{2e}\u{74}\u{69}\u{6d}\u{65}\u{20}\u{41}\u{53}\u{43}"))
(assert (= literal_9 "\u{75}\u{2e}\u{66}\u{69}\u{72}\u{73}\u{74}\u{6e}\u{61}\u{6d}\u{65}\u{20}\u{41}\u{53}\u{43}"))
(assert (= literal_7 "\u{72}\u{2e}\u{74}\u{69}\u{6d}\u{65}\u{20}\u{41}\u{53}\u{43}"))
(assert (or (= x_14 literal_8) (= x_14 literal_10) (= x_14 literal_9) (= x_14 literal_7)))
(assert (= x_16 (str.++ literal_15 x_14)))
(assert (= literal_18 "\u{3c}\u{74}\u{64}\u{20}\u{6e}\u{6f}\u{77}\u{72}\u{61}\u{70}\u{3d}\u{22}\u{6e}\u{6f}\u{77}\u{72}\u{61}\u{70}\u{22}\u{3e}\u{3c}\u{70}\u{3e}\u{3c}\u{66}\u{6f}\u{6e}\u{74}\u{20}\u{73}\u{69}\u{7a}\u{65}\u{3d}\u{22}\u{2d}\u{31}\u{22}\u{3e}"))
(assert (= x_19 (str.++ literal_18 x_16)))
(assert (= literal_20 "\u{3c}\u{2f}\u{70}\u{3e}"))
(assert (= x_21 (str.++ x_19 literal_20)))
(assert (str.in_re x_21 (re.++ (re.* re.allchar) (re.++ (str.to_re "\u{5c}\u{3c}\u{53}\u{43}\u{52}\u{49}\u{50}\u{54}") (re.* re.allchar)))))
(check-sat)
(exit)
